p cnf 386 460
-6 -7 -3 21 22 0
-6 -7 -3 21 -22 0
-6 -7 -3 -21 23 0
-6 -7 -3 -21 -23 0
-16 12 18 24 25 0
-16 12 18 24 -25 0
-16 12 18 -24 26 0
-16 12 18 -24 -26 0
12 -7 -19 27 28 0
12 -7 -19 27 -28 0
12 -7 -19 -27 29 0
12 -7 -19 -27 -29 0
14 1 11 30 31 0
14 1 11 30 -31 0
14 1 11 -30 32 0
14 1 11 -30 -32 0
4 5 -20 33 34 0
4 5 -20 33 -34 0
4 5 -20 -33 35 0
4 5 -20 -33 -35 0
-17 -9 -1 36 37 0
-17 -9 -1 36 -37 0
-17 -9 -1 -36 38 0
-17 -9 -1 -36 -38 0
-17 -16 -2 39 40 0
-17 -16 -2 39 -40 0
-17 -16 -2 -39 41 0
-17 -16 -2 -39 -41 0
-15 -5 -18 42 43 0
-15 -5 -18 42 -43 0
-15 -5 -18 -42 44 0
-15 -5 -18 -42 -44 0
-7 8 -15 45 46 0
-7 8 -15 45 -46 0
-7 8 -15 -45 47 0
-7 8 -15 -45 -47 0
4 -13 3 48 49 0
4 -13 3 48 -49 0
4 -13 3 -48 50 0
4 -13 3 -48 -50 0
-17 10 -15 51 52 0
-17 10 -15 51 -52 0
-17 10 -15 -51 53 0
-17 10 -15 -51 -53 0
7 -6 10 54 55 0
7 -6 10 54 -55 0
7 -6 10 -54 56 0
7 -6 10 -54 -56 0
-20 14 8 57 58 0
-20 14 8 57 -58 0
-20 14 8 -57 59 0
-20 14 8 -57 -59 0
11 13 -10 60 61 0
11 13 -10 60 -61 0
11 13 -10 -60 62 0
11 13 -10 -60 -62 0
3 -14 12 63 64 0
3 -14 12 63 -64 0
3 -14 12 -63 65 0
3 -14 12 -63 -65 0
11 13 14 66 67 0
11 13 14 66 -67 0
11 13 14 -66 68 0
11 13 14 -66 -68 0
20 16 10 69 70 0
20 16 10 69 -70 0
20 16 10 -69 71 0
20 16 10 -69 -71 0
-12 3 20 72 73 0
-12 3 20 72 -73 0
-12 3 20 -72 74 0
-12 3 20 -72 -74 0
-10 -2 -12 75 76 0
-10 -2 -12 75 -76 0
-10 -2 -12 -75 77 0
-10 -2 -12 -75 -77 0
17 5 3 78 79 0
17 5 3 78 -79 0
17 5 3 -78 80 0
17 5 3 -78 -80 0
-12 13 1 81 82 0
-12 13 1 81 -82 0
-12 13 1 -81 83 0
-12 13 1 -81 -83 0
16 17 13 84 85 0
16 17 13 84 -85 0
16 17 13 -84 86 0
16 17 13 -84 -86 0
-17 3 -5 87 88 0
-17 3 -5 87 -88 0
-17 3 -5 -87 89 0
-17 3 -5 -87 -89 0
18 13 15 90 91 0
18 13 15 90 -91 0
18 13 15 -90 92 0
18 13 15 -90 -92 0
1 3 -11 93 94 0
1 3 -11 93 -94 0
1 3 -11 -93 95 0
1 3 -11 -93 -95 0
9 -16 5 96 97 0
9 -16 5 96 -97 0
9 -16 5 -96 98 0
9 -16 5 -96 -98 0
13 -8 2 99 100 0
13 -8 2 99 -100 0
13 -8 2 -99 101 0
13 -8 2 -99 -101 0
-7 8 5 102 103 0
-7 8 5 102 -103 0
-7 8 5 -102 104 0
-7 8 5 -102 -104 0
-5 -2 20 105 106 0
-5 -2 20 105 -106 0
-5 -2 20 -105 107 0
-5 -2 20 -105 -107 0
-6 -12 -9 108 109 0
-6 -12 -9 108 -109 0
-6 -12 -9 -108 110 0
-6 -12 -9 -108 -110 0
-8 -4 9 111 112 0
-8 -4 9 111 -112 0
-8 -4 9 -111 113 0
-8 -4 9 -111 -113 0
-18 5 -8 114 115 0
-18 5 -8 114 -115 0
-18 5 -8 -114 116 0
-18 5 -8 -114 -116 0
2 17 -7 117 118 0
2 17 -7 117 -118 0
2 17 -7 -117 119 0
2 17 -7 -117 -119 0
-14 -12 13 120 121 0
-14 -12 13 120 -121 0
-14 -12 13 -120 122 0
-14 -12 13 -120 -122 0
-19 -17 8 123 124 0
-19 -17 8 123 -124 0
-19 -17 8 -123 125 0
-19 -17 8 -123 -125 0
-1 14 9 126 127 0
-1 14 9 126 -127 0
-1 14 9 -126 128 0
-1 14 9 -126 -128 0
-11 -17 -10 129 130 0
-11 -17 -10 129 -130 0
-11 -17 -10 -129 131 0
-11 -17 -10 -129 -131 0
16 -3 -18 132 133 0
16 -3 -18 132 -133 0
16 -3 -18 -132 134 0
16 -3 -18 -132 -134 0
16 -6 5 135 136 0
16 -6 5 135 -136 0
16 -6 5 -135 137 0
16 -6 5 -135 -137 0
-3 -7 -11 138 139 0
-3 -7 -11 138 -139 0
-3 -7 -11 -138 140 0
-3 -7 -11 -138 -140 0
16 -12 1 141 142 0
16 -12 1 141 -142 0
16 -12 1 -141 143 0
16 -12 1 -141 -143 0
18 8 6 144 145 0
18 8 6 144 -145 0
18 8 6 -144 146 0
18 8 6 -144 -146 0
-19 3 -4 147 148 0
-19 3 -4 147 -148 0
-19 3 -4 -147 149 0
-19 3 -4 -147 -149 0
-8 2 -3 150 151 0
-8 2 -3 150 -151 0
-8 2 -3 -150 152 0
-8 2 -3 -150 -152 0
15 10 -20 153 154 0
15 10 -20 153 -154 0
15 10 -20 -153 155 0
15 10 -20 -153 -155 0
-17 20 8 156 157 0
-17 20 8 156 -157 0
-17 20 8 -156 158 0
-17 20 8 -156 -158 0
-7 -6 -13 159 160 0
-7 -6 -13 159 -160 0
-7 -6 -13 -159 161 0
-7 -6 -13 -159 -161 0
-15 12 2 162 163 0
-15 12 2 162 -163 0
-15 12 2 -162 164 0
-15 12 2 -162 -164 0
15 -9 17 165 166 0
15 -9 17 165 -166 0
15 -9 17 -165 167 0
15 -9 17 -165 -167 0
1 5 9 168 169 0
1 5 9 168 -169 0
1 5 9 -168 170 0
1 5 9 -168 -170 0
3 -9 -14 171 172 0
3 -9 -14 171 -172 0
3 -9 -14 -171 173 0
3 -9 -14 -171 -173 0
8 -1 11 174 175 0
8 -1 11 174 -175 0
8 -1 11 -174 176 0
8 -1 11 -174 -176 0
-15 -5 -11 177 178 0
-15 -5 -11 177 -178 0
-15 -5 -11 -177 179 0
-15 -5 -11 -177 -179 0
6 -8 7 180 181 0
6 -8 7 180 -181 0
6 -8 7 -180 182 0
6 -8 7 -180 -182 0
12 -14 -7 183 184 0
12 -14 -7 183 -184 0
12 -14 -7 -183 185 0
12 -14 -7 -183 -185 0
-7 3 -4 186 187 0
-7 3 -4 186 -187 0
-7 3 -4 -186 188 0
-7 3 -4 -186 -188 0
18 -11 -20 189 190 0
18 -11 -20 189 -190 0
18 -11 -20 -189 191 0
18 -11 -20 -189 -191 0
17 -6 18 192 193 0
17 -6 18 192 -193 0
17 -6 18 -192 194 0
17 -6 18 -192 -194 0
-6 3 17 195 196 0
-6 3 17 195 -196 0
-6 3 17 -195 197 0
-6 3 17 -195 -197 0
14 -18 4 198 199 0
14 -18 4 198 -199 0
14 -18 4 -198 200 0
14 -18 4 -198 -200 0
-16 4 -7 201 202 0
-16 4 -7 201 -202 0
-16 4 -7 -201 203 0
-16 4 -7 -201 -203 0
-18 1 9 204 205 0
-18 1 9 204 -205 0
-18 1 9 -204 206 0
-18 1 9 -204 -206 0
-18 -7 -13 207 208 0
-18 -7 -13 207 -208 0
-18 -7 -13 -207 209 0
-18 -7 -13 -207 -209 0
17 13 10 210 211 0
17 13 10 210 -211 0
17 13 10 -210 212 0
17 13 10 -210 -212 0
-20 7 -4 213 214 0
-20 7 -4 213 -214 0
-20 7 -4 -213 215 0
-20 7 -4 -213 -215 0
1 17 -18 216 217 0
1 17 -18 216 -217 0
1 17 -18 -216 218 0
1 17 -18 -216 -218 0
-5 -8 13 219 220 0
-5 -8 13 219 -220 0
-5 -8 13 -219 221 0
-5 -8 13 -219 -221 0
-19 -17 9 222 223 0
-19 -17 9 222 -223 0
-19 -17 9 -222 224 0
-19 -17 9 -222 -224 0
-9 8 -18 225 226 0
-9 8 -18 225 -226 0
-9 8 -18 -225 227 0
-9 8 -18 -225 -227 0
2 9 -6 228 229 0
2 9 -6 228 -229 0
2 9 -6 -228 230 0
2 9 -6 -228 -230 0
4 -7 -13 231 232 0
4 -7 -13 231 -232 0
4 -7 -13 -231 233 0
4 -7 -13 -231 -233 0
17 15 7 234 235 0
17 15 7 234 -235 0
17 15 7 -234 236 0
17 15 7 -234 -236 0
-11 -7 -3 237 238 0
-11 -7 -3 237 -238 0
-11 -7 -3 -237 239 0
-11 -7 -3 -237 -239 0
4 6 1 240 241 0
4 6 1 240 -241 0
4 6 1 -240 242 0
4 6 1 -240 -242 0
20 6 19 243 244 0
20 6 19 243 -244 0
20 6 19 -243 245 0
20 6 19 -243 -245 0
-1 -14 -10 246 247 0
-1 -14 -10 246 -247 0
-1 -14 -10 -246 248 0
-1 -14 -10 -246 -248 0
-13 -10 15 249 250 0
-13 -10 15 249 -250 0
-13 -10 15 -249 251 0
-13 -10 15 -249 -251 0
5 9 -7 252 253 0
5 9 -7 252 -253 0
5 9 -7 -252 254 0
5 9 -7 -252 -254 0
-11 -12 20 255 256 0
-11 -12 20 255 -256 0
-11 -12 20 -255 257 0
-11 -12 20 -255 -257 0
-12 -1 -7 258 259 0
-12 -1 -7 258 -259 0
-12 -1 -7 -258 260 0
-12 -1 -7 -258 -260 0
-18 -4 -20 261 262 0
-18 -4 -20 261 -262 0
-18 -4 -20 -261 263 0
-18 -4 -20 -261 -263 0
3 8 -15 264 265 0
3 8 -15 264 -265 0
3 8 -15 -264 266 0
3 8 -15 -264 -266 0
-6 15 5 267 268 0
-6 15 5 267 -268 0
-6 15 5 -267 269 0
-6 15 5 -267 -269 0
-11 13 -1 270 271 0
-11 13 -1 270 -271 0
-11 13 -1 -270 272 0
-11 13 -1 -270 -272 0
19 -15 18 273 274 0
19 -15 18 273 -274 0
19 -15 18 -273 275 0
19 -15 18 -273 -275 0
-16 -9 12 276 277 0
-16 -9 12 276 -277 0
-16 -9 12 -276 278 0
-16 -9 12 -276 -278 0
15 2 17 279 280 0
15 2 17 279 -280 0
15 2 17 -279 281 0
15 2 17 -279 -281 0
6 -8 -17 282 283 0
6 -8 -17 282 -283 0
6 -8 -17 -282 284 0
6 -8 -17 -282 -284 0
20 -11 -1 285 286 0
20 -11 -1 285 -286 0
20 -11 -1 -285 287 0
20 -11 -1 -285 -287 0
20 -9 15 288 289 0
20 -9 15 288 -289 0
20 -9 15 -288 290 0
20 -9 15 -288 -290 0
-1 8 14 291 292 0
-1 8 14 291 -292 0
-1 8 14 -291 293 0
-1 8 14 -291 -293 0
294 295 297 301 309 0
294 295 297 301 -309 0
294 295 297 -301 310 0
294 295 297 -301 -310 0
294 295 -297 302 311 0
294 295 -297 302 -311 0
294 295 -297 -302 312 0
294 295 -297 -302 -312 0
294 -295 298 303 313 0
294 -295 298 303 -313 0
294 -295 298 -303 314 0
294 -295 298 -303 -314 0
294 -295 -298 304 315 0
294 -295 -298 304 -315 0
294 -295 -298 -304 316 0
294 -295 -298 -304 -316 0
-294 296 299 305 317 0
-294 296 299 305 -317 0
-294 296 299 -305 318 0
-294 296 299 -305 -318 0
-294 296 -299 306 319 0
-294 296 -299 306 -319 0
-294 296 -299 -306 320 0
-294 296 -299 -306 -320 0
-294 -296 300 307 321 0
-294 -296 300 307 -321 0
-294 -296 300 -307 322 0
-294 -296 300 -307 -322 0
-294 -296 -300 308 323 0
-294 -296 -300 308 -323 0
-294 -296 -300 -308 324 0
-294 -296 -300 -308 -324 0
325 326 328 332 340 0
325 326 328 332 -340 0
325 326 328 -332 341 0
325 326 328 -332 -341 0
325 326 -328 333 342 0
325 326 -328 333 -342 0
325 326 -328 -333 343 0
325 326 -328 -333 -343 0
325 -326 329 334 344 0
325 -326 329 334 -344 0
325 -326 329 -334 345 0
325 -326 329 -334 -345 0
325 -326 -329 335 346 0
325 -326 -329 335 -346 0
325 -326 -329 -335 347 0
325 -326 -329 -335 -347 0
-325 327 330 336 348 0
-325 327 330 336 -348 0
-325 327 330 -336 349 0
-325 327 330 -336 -349 0
-325 327 -330 337 350 0
-325 327 -330 337 -350 0
-325 327 -330 -337 351 0
-325 327 -330 -337 -351 0
-325 -327 331 338 352 0
-325 -327 331 338 -352 0
-325 -327 331 -338 353 0
-325 -327 331 -338 -353 0
-325 -327 -331 339 354 0
-325 -327 -331 339 -354 0
-325 -327 -331 -339 355 0
-325 -327 -331 -339 -355 0
356 357 359 363 371 0
356 357 359 363 -371 0
356 357 359 -363 372 0
356 357 359 -363 -372 0
356 357 -359 364 373 0
356 357 -359 364 -373 0
356 357 -359 -364 374 0
356 357 -359 -364 -374 0
356 -357 360 365 375 0
356 -357 360 365 -375 0
356 -357 360 -365 376 0
356 -357 360 -365 -376 0
356 -357 -360 366 377 0
356 -357 -360 366 -377 0
356 -357 -360 -366 378 0
356 -357 -360 -366 -378 0
-356 358 361 367 379 0
-356 358 361 367 -379 0
-356 358 361 -367 380 0
-356 358 361 -367 -380 0
-356 358 -361 368 381 0
-356 358 -361 368 -381 0
-356 358 -361 -368 382 0
-356 358 -361 -368 -382 0
-356 -358 362 369 383 0
-356 -358 362 369 -383 0
-356 -358 362 -369 384 0
-356 -358 362 -369 -384 0
-356 -358 -362 370 385 0
-356 -358 -362 370 -385 0
-356 -358 -362 -370 386 0
-356 -358 -362 -370 -386 0

